* ; EXPECT: unsat
* (set-info :smt-lib-version 2.6)
* (set-logic QF_BV)
* (set-info :status unsat)
* 
* (declare-const x (_ BitVec 5))
* (assert (bvslt x x))
* (check-sat)
* (exit)
* unsat
* #variable= 5 #constraint= 1
+1 x1 +2 x2 +4 x3 +8 x4 -16 x5 -1 x1 -2 x2 -4 x3 -8 x4 +16 x5 >= 1;
